150
[30,31,32,33,34,35,36,37,38,39,40,41,43,44,45,46,47,48,49,50,51,52,53,54,55,56,57,58,59,60,61,62,63,64,65,66,67,68,69,70,71,72,73,74,75,76,77,78,79,80,81,82,83,84,85,86,87,88,89,90,91,92,93,94,95,96,97,98,99,100,101,102,103,104,105]
[4,6,3,4,6,5,4,6,2,2,7,4,5,3,4,5,4,5,3,8,2,5,5,3,2,3,6,7,4,2,4,6,3,3,1,2,3,4,8,3,3,4,2,4,2,5,6,8,1,4,2,3,1,1,3,1,4,5,5,4,7,2,2,7,3,7,4,6,4,3,5,1,5,6,4]
